31
Properties=species:S:1:pos:R:3:displacement:R:3 method=B3LYP-D3BJ/def2-SVP mode=7 frequency_cm1=-14.08 imaginary=6:-295.24,7:-14.08 source=step3_structure_10.out sha256=2c9a48d0e5157814 pbc="F F F"
C        0.26013900       1.19321400      -0.23228700       0.08845900       0.02206500      -0.02575600
C        0.05553600      -0.96375000       0.40629700       0.01760500       0.05186900       0.05104000
C       -0.82598100       0.30218000       0.40421400       0.07673300       0.09299300       0.05344000
C        1.40972600       1.03184400       0.80985700       0.13059100       0.00085600      -0.07572700
C        1.27665600      -0.46060300       1.24489800       0.08153200       0.02061200      -0.02342400
C        0.65816300       0.34303100      -1.43195500      -0.00878700      -0.03429100      -0.01844400
C        0.54211000      -0.97905700      -1.02838000      -0.05317300      -0.01648300       0.02784100
H       -0.01408800       2.23144900      -0.46076700       0.12649300       0.02781200      -0.04518800
H       -0.39859000      -1.89383300       0.77298400      -0.00848800       0.08496600       0.10268000
H       -1.10989300       0.62609200       1.41785000       0.14005800       0.13807100       0.05678300
H       -1.73080100       0.20121100      -0.20992800       0.04335500       0.11448600       0.09913900
H        1.25375300       1.71127600       1.66258900       0.20302900       0.03454700      -0.08931300
H        2.39355100       1.26631100       0.37669000       0.12086200      -0.05848200      -0.12995700
H        2.18411200      -1.05007300       1.04510300       0.04428700      -0.02814700      -0.04875200
H        1.05696900      -0.54920700       2.32040700       0.12909800       0.06409400      -0.01013800
H        1.35187400       0.68848900      -2.19985600      -0.02856000      -0.09070100      -0.06149400
H        1.07709400      -1.81966900      -1.47066500      -0.11564400      -0.05668800       0.02784700
N       -1.31150800      -1.54378700      -2.23040300      -0.15015400       0.04042600       0.15388200
N       -1.48463600      -0.43283800      -2.79370600      -0.10290600       0.01941400       0.09763900
N       -0.98394800       0.62610600      -2.80763600      -0.05845600      -0.00221600       0.04736400
C       -2.14798900      -2.64402700      -2.42562700      -0.07654900       0.00271800       0.05092900
C       -3.25720400      -2.63521800      -3.29196500       0.05386400      -0.06029700      -0.11666700
C       -1.84475700      -3.81249500      -1.70497800      -0.13501800       0.02873300       0.11763200
C       -4.04233200      -3.77944800      -3.42626800       0.12199600      -0.09575400      -0.21288500
C       -2.63897300      -4.94919200      -1.84962300      -0.06234000      -0.00903500       0.01565000
C       -3.74191600      -4.94230300      -2.70920200       0.06556400      -0.07093500      -0.14901500
H       -3.49111500      -1.72743000      -3.85134300       0.09792200      -0.07959400      -0.16640600
H       -0.98314200      -3.81200400      -1.03497200      -0.23776900       0.07879500       0.24974300
H       -4.90140500      -3.76042300      -4.10209200       0.22149500      -0.14392400      -0.34070400
H       -2.39231800      -5.85067000      -1.28295100      -0.10814300       0.01119000       0.06776000
H       -4.36193100      -5.83460500      -2.81991100       0.12039200      -0.09942700      -0.22640100
