31
Properties=species:S:1:pos:R:3:displacement:R:3 method=B3LYP-D3BJ/def2-SVP mode=6 frequency_cm1=-312.39 imaginary=6:-312.39 source=step3_structure_guess_0_neg.out sha256=91c13ae5b3e81c9f pbc="F F F"
C        0.02506800       1.06829700      -0.28516600       0.06153800       0.01872500       0.07056200
C       -0.06700600      -1.14842500       0.14746000       0.08657900       0.02330100       0.04054200
C       -1.06061700       0.02943800       0.06721400       0.05764200      -0.00744500      -0.02038800
C        0.97053600       0.91619100       0.94811300      -0.02215800       0.02957100       0.14249200
C        0.91284200      -0.61547900       1.24427000      -0.02104500       0.02592900       0.13123000
C        0.73073800       0.37037100      -1.44217600       0.30918300       0.00234000       0.26833300
C        0.67977000      -0.99025000      -1.16457200       0.31712900       0.13961600       0.19038800
H       -0.31001000       2.09475200      -0.48543000       0.06255200       0.01132500       0.03342800
H       -0.48131400      -2.14558200       0.34776300       0.09534400       0.00325800      -0.04012500
H       -1.55630800       0.23449000       1.02903500      -0.01930100      -0.02401700      -0.05387700
H       -1.82808800      -0.09208000      -0.70892600       0.11184100      -0.01688900      -0.07423400
H        0.58928200       1.50204300       1.79934800      -0.06370100       0.01709800       0.13380200
H        1.98853600       1.27296800       0.73139100      -0.01799100       0.03885800       0.18276500
H        1.89835100      -1.10193400       1.18812800      -0.01309800       0.03945200       0.17642800
H        0.50338900      -0.81703400       2.24665300      -0.06816000       0.02948100       0.11383800
H        1.51887900       0.84572200      -2.02891800      -0.04044700       0.13039500      -0.08649000
H        1.38868600      -1.72923500      -1.53839800       0.05648900       0.00951800      -0.03625500
N       -0.81031500      -1.63832700      -2.72213000      -0.09446100      -0.10374200      -0.27206000
N       -1.06083300      -0.49353200      -3.19574900       0.03530200      -0.04986400       0.04191500
N       -0.66821600       0.60357900      -3.09297400      -0.34301700       0.02621100      -0.38471700
C       -1.81724400      -2.59730400      -2.56958600      -0.08891100      -0.03522700      -0.09640100
C       -3.17473800      -2.35475100      -2.85241100      -0.08240600      -0.02507000      -0.03091200
C       -1.43056300      -3.85242400      -2.06675900      -0.03509200       0.00151800      -0.04556900
C       -4.11992300      -3.35711800      -2.63587800      -0.06289900      -0.02575700       0.02173900
C       -2.38762700      -4.84120200      -1.84263300      -0.01668800      -0.00055200      -0.00056000
C       -3.73643500      -4.60257300      -2.12720000      -0.02474800      -0.01420000       0.01745000
H       -3.47408600      -1.38235800      -3.24895800      -0.09925700      -0.03526200      -0.05018500
H       -0.37490700      -4.03286700      -1.85534100      -0.02427000       0.04081300      -0.07254500
H       -5.17045400      -3.15982400      -2.86507100      -0.07264000      -0.04503200       0.05311000
H       -2.07499300      -5.81124000      -1.44767900      -0.00434300       0.01124300       0.01749800
H       -4.48270100      -5.38161100      -1.95612000      -0.01163100      -0.02178700       0.03806800
