3
water a
O -0.010570 -0.020949  0.009056
H  0.932346  0.002153 -0.008059
H -0.266520  0.927446 -0.027750
3
water b
O -0.003981 -0.025809 -0.024557
H  0.953471  0.019611 -0.022572
H -0.256606  0.934646  0.026863
3
water c
O  0.004626 -0.006199  0.028575
H  0.930795  0.021508 -0.012623
H -0.261345  0.904068 -0.011491
3
water d
O  0.018968 -0.019156  0.004896
H  0.966335 -0.007656  0.002865
H -0.266233  0.900576 -0.017642
3
water e
O  0.010824 -0.004344 -0.011151
H  0.963134 -0.002809 -0.012014
H -0.222337  0.938940 -0.015354
3
water f
O  0.004465  0.001512  0.022508
H  0.971767 -0.012724  0.028810
H -0.262916  0.922087  0.015428
3
water g
O -0.020881 -0.000662 -0.027648
H  0.968093  0.015874  0.004382
H -0.217471  0.915825  0.011718
3
water h
O  0.005662  0.004794 -0.002628
H  0.978398  0.026681 -0.001554
H -0.230151  0.900640  0.012090
