10
ethylene glycol conformer, O-C-C-O 59 deg (MMFF)
O      1.242263    -0.772665     0.242648
C      0.561144     0.395284    -0.219388
C     -0.928891     0.087673    -0.299812
O     -1.402036    -0.299263     0.989187
H      2.186453    -0.542347     0.298524
H      0.750650     1.197723     0.500131
H      0.956596     0.674459    -1.199961
H     -1.494776     0.962155    -0.631936
H     -1.119263    -0.744651    -0.984481
H     -0.752140    -0.958367     1.305088
10
ethylene glycol conformer, O-C-C-O -59 deg (MMFF)
O      1.379021    -0.294988     0.629081
C      0.625070     0.130924    -0.507695
C     -0.846082     0.234158    -0.122223
O     -1.313550    -1.033042     0.334843
H      1.379104     0.438763     1.268978
H      0.765111    -0.622893    -1.288153
H      1.018035     1.089046    -0.859567
H     -1.456635     0.545192    -0.974105
H     -0.982473     0.947698     0.696142
H     -0.567599    -1.434857     0.822698
10
ethylene glycol conformer, O-C-C-O -180 deg (MMFF)
O      1.599831     0.697381     0.574692
C      0.725095    -0.095782    -0.214888
C     -0.725095     0.095783     0.214887
O     -1.599832    -0.697384    -0.574689
H      1.414237     1.629709     0.366208
H      1.016319    -1.145602    -0.105386
H      0.858450     0.162800    -1.270838
H     -1.016321     1.145602     0.105380
H     -0.858449    -0.162796     1.270838
H     -1.414235    -1.629711    -0.366203
